
		nb_weeks = 26;
		H = {73,74,87,112,113,123,168,};
		nb_holidays = 7;
		nb_personnel = 56;
		personnel_id = [1,2,3,4,5,6,7,8,9,10,11,12,13,14,15,16,17,18,19,20,21,22,23,24,25,26,27,28,29,30,31,32,33,34,35,36,37,38,39,40,41,42,43,44,46,47,48,49,50,51,52,53,54,55,56,57,];
		T = [SA_F_NEO,SA_F_NEO,SA_F_NEO,SA_F_NEO,SA_F_NEO,SA_F_NEO,SA_F_NEO,SA_F_NEO,SA_F_NEO,SA_F_NEO,SA_F_NEO,SA_F_NEO,SA_F_NEO,SA_F_NEO,SA_F_NEO,SA_F_NEO,SA_F_NEO,SA_F_NEO,SA_F_NEO,SA_F_NEO,SA_NEO,SA_NEO,SA_NEO,SA_NEO,SA_NEO,SA_NEO,SA_NEO,SA_NEO,SA_NEO,SA_NEO,SA_F,SA_F,SA_F,SA,SA,JA,JA,JA,JA,JA,JA,JA,JA,JA,JA,JA,JA_F,JA_F,JA_F,JA_F,JA_F,JA_F,JA_F,JA_F,JA_F,JA_F,];
		F = [{},{},{},{},{},{},{},{},{},{},{},{},{},{},{},{},{},{},{},{},{},{},{},{},{},{},{},{},{},{},{},{},{},{},{},{6,},{},{},{},{},{},{},{},{},{},{},{},{},{},{},{},{},{},{},{},{},];
		
		shift_workload = [1.000000,2.000000,2.000000,1.000000,2.000000,2.000000,1.000000,1.000000,1.000000,0.0];
		max_buffer = [1,1,1,1,1,1,1,1,1,0];
		min_balance = 12;
	